NAME          BLANK   
ROWS
 N  OBJROW
 L  R0000000
COLUMNS
    C0000000  OBJROW     -38.          R0000000  664.        
    C0000001  OBJROW     -167.         R0000000  138.        
    C0000002  OBJROW     -330.         R0000000  681.        
    C0000003  OBJROW     -10.          R0000000  543.        
    C0000004  OBJROW     -355.         R0000000  811.        
    C0000005  OBJROW     -866.         R0000000  150.        
    C0000006  OBJROW     -817.         R0000000  845.        
    C0000007  OBJROW     -771.         R0000000  678.        
    C0000008  OBJROW     -786.         R0000000  568.        
    C0000009  OBJROW     -304.         R0000000  390.        
    C0000010  OBJROW     -288.         R0000000  102.        
    C0000011  OBJROW     -667.         R0000000  511.        
    C0000012  OBJROW     -577.         R0000000  945.        
    C0000013  OBJROW     -362.         R0000000  178.        
    C0000014  OBJROW     -33.          R0000000  503.        
    C0000015  OBJROW     -761.         R0000000  972.        
RHS
    RHS       R0000000  14716.      
BOUNDS
 BV BOUND     C0000000  1.          
 BV BOUND     C0000001  1.          
 BV BOUND     C0000002  1.          
 BV BOUND     C0000003  1.          
 BV BOUND     C0000004  1.          
 BV BOUND     C0000005  1.          
 BV BOUND     C0000006  1.          
 BV BOUND     C0000007  1.          
 BV BOUND     C0000008  1.          
 BV BOUND     C0000009  1.          
 BV BOUND     C0000010  1.          
 BV BOUND     C0000011  1.          
 BV BOUND     C0000012  1.          
 BV BOUND     C0000013  1.          
 BV BOUND     C0000014  1.          
 BV BOUND     C0000015  1.          
ENDATA
